1 1564 10
2 1337 10
3 1309 10
5 1247 10
9 1230 10
53 1179 10



1 1633 10
2 1340 10
3 1307 10
6 1292 10
9 1250 10
10 1246 10
21 1235 10
56 1205 10
188 1202 10
249 1199 10
649 1177 10



1 1557 10
2 1309 10
5 1297 10
10 1284 10
11 1242 10
17 1209 10
35 1202 10
45 1199 10
149 1191 10



1 1565 10
2 1353 10
3 1319 10
4 1273 10
10 1250 10
20 1244 10
23 1242 10
42 1241 10
52 1239 10
79 1238 10
88 1231 10
114 1226 10
126 1220 10
138 1200 10
321 1196 10
432 1192 10



1 1534 10
2 1341 10
4 1306 10
5 1305 11
8 1255 10
11 1237 10
12 1199 10
358 1197 10
427 1181 10



